* #variable= 30 #constraint= 42 
-1 x21 -1 x1 -1 x11 >= -2 ;
-1 x21 +1 x1 +1 x11 >= 0 ;
+1 x21 -1 x1 +1 x11 >= 0 ;
+1 x21 +1 x1 -1 x11 >= 0 ;
-1 x22 -1 x2 -1 x12 >= -2 ;
-1 x22 +1 x2 +1 x12 >= 0 ;
+1 x22 -1 x2 +1 x12 >= 0 ;
+1 x22 +1 x2 -1 x12 >= 0 ;
-1 x23 -1 x3 -1 x13 >= -2 ;
-1 x23 +1 x3 +1 x13 >= 0 ;
+1 x23 -1 x3 +1 x13 >= 0 ;
+1 x23 +1 x3 -1 x13 >= 0 ;
-1 x24 -1 x4 -1 x14 >= -2 ;
-1 x24 +1 x4 +1 x14 >= 0 ;
+1 x24 -1 x4 +1 x14 >= 0 ;
+1 x24 +1 x4 -1 x14 >= 0 ;
-1 x25 -1 x5 -1 x15 >= -2 ;
-1 x25 +1 x5 +1 x15 >= 0 ;
+1 x25 -1 x5 +1 x15 >= 0 ;
+1 x25 +1 x5 -1 x15 >= 0 ;
-1 x26 -1 x6 -1 x16 >= -2 ;
-1 x26 +1 x6 +1 x16 >= 0 ;
+1 x26 -1 x6 +1 x16 >= 0 ;
+1 x26 +1 x6 -1 x16 >= 0 ;
-1 x27 -1 x7 -1 x17 >= -2 ;
-1 x27 +1 x7 +1 x17 >= 0 ;
+1 x27 -1 x7 +1 x17 >= 0 ;
+1 x27 +1 x7 -1 x17 >= 0 ;
-1 x28 -1 x8 -1 x18 >= -2 ;
-1 x28 +1 x8 +1 x18 >= 0 ;
+1 x28 -1 x8 +1 x18 >= 0 ;
+1 x28 +1 x8 -1 x18 >= 0 ;
-1 x29 -1 x9 -1 x19 >= -2 ;
-1 x29 +1 x9 +1 x19 >= 0 ;
+1 x29 -1 x9 +1 x19 >= 0 ;
+1 x29 +1 x9 -1 x19 >= 0 ;
-1 x30 -1 x10 -1 x20 >= -2 ;
-1 x30 +1 x10 +1 x20 >= 0 ;
+1 x30 -1 x10 +1 x20 >= 0 ;
+1 x30 +1 x10 -1 x20 >= 0 ;
+1 x1 -1 x11 +2 x2 -2 x12 +4 x3 -4 x13 +8 x4 -8 x14 +16 x5 -16 x15 +32 x6 -32 x16 +64 x7 -64 x17 +128 x8 -128 x18 +256 x9 -256 x19 +512 x10 -512 x20 = 0 ;
+1 x21 +1 x22 +1 x23 +1 x24 +1 x25 +1 x26 +1 x27 +1 x28 +1 x29 +1 x30 >= 1 ;
